(set-logic QF_S)
(set-option :strings-exp true)
(set-option :produce-models true)
(declare-fun mycontent*9 () String)
(declare-fun len*19 () Int)
(declare-fun mycontent*-11 () String)
(declare-fun _POST@content*0 () String)
(declare-fun mycontent*12 () String)
(declare-fun mypassword*8 () String)
(declare-fun myusername*7 () String)
(declare-fun _POST@username*0 () String)
(declare-fun mycontent*15 () String)
(declare-fun _POST@password*0 () String)
(declare-fun mycontent*0 () String)
(declare-fun len*0 () Int)
(declare-fun mypassword*0 () String)
(declare-fun myusername*0 () String)

(assert (= myusername*7  _POST@username*0 )
 )
(assert (= mypassword*8  _POST@password*0 )
 )
(assert (= mycontent*9  "" )
 )
(assert (ite (= myusername*7 "guest" )
		 (and   (= mycontent*12  _POST@content*0 )
 (= mycontent*-11 mycontent*12) )

		 (and   (= mycontent*15  "admin sql query content" )
 (= mycontent*-11 mycontent*15) )

)
 )
(assert (= len*19  (str.len myusername*7) )
 )
(assert (ite (> len*19 5 )
		 (and    true )

		 (and    true )

)
 )

(assert (and (> len*19 5 )false  ))
(check-sat)
(get-model)
